15
-1 78 93 51 84 18 64 19 52 87 60 26 10 57 70
15 -1 27 43 58 64 9 82 86 65 87 77 74 25 27
29 28 -1 20 2 62 23 96 37 61 95 25 64 60 2
16 30 26 -1 71 11 47 53 20 90 24 88 63 40 51
62 29 13 58 -1 65 7 77 58 39 3 60 57 24 77
8 13 87 1 50 -1 28 93 84 5 40 11 4 35 56
72 50 23 85 56 16 -1 57 26 57 37 71 69 61 96
22 17 12 17 96 85 41 -1 29 29 65 59 32 96 55
53 62 84 34 54 72 57 69 -1 63 7 83 11 35 67
48 75 38 23 42 54 11 41 75 -1 25 21 70 26 34
5 83 50 98 79 1 93 34 37 34 -1 93 76 5 62
48 81 13 41 55 55 42 62 11 77 24 -1 52 43 96
73 40 13 75 72 18 10 17 32 12 95 69 -1 40 88
85 90 97 89 90 45 53 14 51 40 44 58 35 -1 92
5 64 81 3 29 75 8 92 97 49 56 61 27 67 -1